Problem:    
Rows:       68
Columns:    29 (20 integer, 20 binary)
Non-zeros:  206
Status:     INTEGER OPTIMAL
Objective:  value = 7.353975 (MINimum)

   No.   Row name        Activity     Lower bound   Upper bound
------ ------------    ------------- ------------- -------------
     1 r.5                   1031.35             0               
     2 r.6                  -1016.65      -1023.87               
     3 r.7                   7.35397             0               
     4 r.8                   7.35397      -1023.15               
     5 r.9                   7.35397             0               
     6 r.10                  7.35397       -1021.4               
     7 r.11                  1031.35             0               
     8 r.12                 -1016.65      -1019.81               
     9 r.13                  1031.35             0               
    10 r.14                 -1016.78      -1016.81               
    11 r.15                  7.35397             0               
    12 r.16                  7.35397      -1013.93               
    13 r.17                  1031.35             0               
    14 r.18                 -1023.97      -1023.97               
    15 r.19                  7.35397             0               
    16 r.20                 0.031875       -1023.2               
    17 r.21                        1             1             = 
    18 r.22                        1             1             = 
    19 r.23                        1             1             = 
    20 r.24                        1             1             = 
    21 r.25                     1025             2               
    22 r.26                    -1025         -1025               
    23 r.27                     2048       -1021.4               
    24 r.28                     1025             2               
    25 r.29                    -1025         -1025               
    26 r.30                     2048      -1019.81               
    27 r.31                        2             2               
    28 r.32                       -2         -1025               
    29 r.33                  -0.1308      -1016.81               
    30 r.34                     1024             2               
    31 r.35                    -1024         -1025               
    32 r.36                     2048      -1013.93               
    33 r.37                 -1016.68      -1023.87               
    34 r.38                   7.3221      -1023.15               
    35 r.39                 -1016.68      -1023.87               
    36 r.40                   7.3221      -1023.15               
    37 r.41                     1025             2               
    38 r.42                    -1025         -1025               
    39 r.43                     2048        0.1308               
    40 r.44                     1025             2               
    41 r.45                    -1025         -1025               
    42 r.46                     2048         0.846               
    43 r.47                     1025             2               
    44 r.48                    -1025         -1025               
    45 r.49                  2047.87      -1016.81               
    46 r.50                     1025             2               
    47 r.51                    -1025         -1025               
    48 r.52                     2048      -1013.93               
    49 r.53                   7.3221       -1021.4               
    50 r.54                 -1016.68      -1019.81               
    51 r.55                   7.3221       -1021.4               
    52 r.56                 -1016.68      -1019.81               
    53 r.57                        2             2               
    54 r.58                       -2         -1025               
    55 r.59                   0.1308        0.1308               
    56 r.60                     1024             2               
    57 r.61                    -1024         -1025               
    58 r.62                     2048         0.846               
    59 r.63                     1025             2               
    60 r.64                    -1025         -1025               
    61 r.65                  2048.13        2.6028               
    62 r.66                     1025             2               
    63 r.67                    -1025         -1025               
    64 r.68                     2048       4.19214               
    65 r.69                 -1016.81      -1016.81               
    66 r.70                   7.3221      -1013.93               
    67 r.71                 -1016.81      -1016.81               
    68 r.72                   7.3221      -1013.93               

   No. Column name       Activity     Lower bound   Upper bound
------ ------------    ------------- ------------- -------------
     1 tt                    7.35397             0               
     2 s_1_1        *              1             0             1 
     3 t_1_1                       0             0               
     4 s_2_1        *              0             0             1 
     5 t_2_1                       0             0               
     6 s_1_2        *              0             0             1 
     7 t_1_2                       0             0               
     8 s_2_2        *              1             0             1 
     9 t_2_2                       0             0               
    10 s_1_3        *              1             0             1 
    11 t_1_3                  0.1308             0               
    12 s_2_3        *              0             0             1 
    13 t_2_3                       0             0               
    14 s_1_4        *              1             0             1 
    15 t_1_4                  7.3221             0               
    16 s_2_4        *              0             0             1 
    17 t_2_4                  7.3221             0               
    18 r_1_1_2      *              1             0             1 
    19 u_1_1_2      *              0             0             1 
    20 r_2_1_2      *              1             0             1 
    21 u_2_1_2      *              0             0             1 
    22 r_1_1_3      *              0             0             1 
    23 u_1_1_3      *              0             0             1 
    24 r_2_1_3      *              1             0             1 
    25 u_2_1_3      *              0             0             1 
    26 r_1_2_3      *              1             0             1 
    27 u_1_2_3      *              0             0             1 
    28 r_2_2_3      *              1             0             1 
    29 u_2_2_3      *              0             0             1 

Integer feasibility conditions:

KKT.PE: max.abs.err = 0.00e+00 on row 0
        max.rel.err = 0.00e+00 on row 0
        High quality

KKT.PB: max.abs.err = 0.00e+00 on row 0
        max.rel.err = 0.00e+00 on row 0
        High quality

End of output
